(set-logic QF_NRA)
(declare-fun x1 () Real)
(declare-fun x2 () Real)
(declare-fun x3 () Real)
(declare-fun x4 () Real)
(declare-fun x5 () Real)
(declare-fun x6 () Real)

(assert (>= (- -2 ( + ( + (* -7 (* x3 x3)) (* 3 (* x1 x1)) ) (* -3 (* x1 x2)) )) 0))
(assert (>= (- -4 ( + (* -6 (* x3 x4)) (* -4 (* x2 x3)) )) 0))
(assert (>= (- -10 ( + ( + (* 6 (* x2 x3)) (* -4 x3) ) (* 2 x5) )) 0))
(assert (>= (- 5 ( + ( + ( + (* -1 (* x2 x2)) (* -7 x2) ) (* 8 (* x2 x5)) ) (* -2 (* x6 x6)) )) 0))
(assert (>= (- 3 ( + (* 4 (* x4 x4)) (* 3 (* x3 x3)) )) 0))
(check-sat)
(exit)